c 
p cnf 10 40
-4 -1 0
-1 0
1 7 -6 -5 0
1 -3 2 4 7 0
-2 0
5 9 7 0
7 -3 0
7 10 0
-8 -5 0
-6 -10 0
-3 0
6 4 -10 -7 0
-6 7 0
-10 -6 -5 7 0
-10 -7 8 -6 0
-10 8 -1 -7 0
5 -4 0
-9 8 0
-8 0
8 2 6 5 0
-10 0
1 -4 7 9 0
3 -1 0
2 -8 -4 -5 3 0
-5 1 0
5 -7 0
-3 1 0
-10 0
9 3 1 8 7 0
-2 -3 4 10 -6 0
-2 0
-8 6 -7 2 0
5 -6 -9 -7 0
-8 -4 1 10 -3 0
-2 -6 5 0
-6 0
10 1 -7 0
9 0
5 -10 7 0
-10 -5 0
